
<<< setup


<<< generate

Version identifier: 12.10.0.0 | 2019-11-26 | 843d4de2ae
CPXPARAM_TimeLimit                               1200
Tried aggregator 3 times.
MIP Presolve eliminated 5194334 rows and 2961138 columns.
MIP Presolve modified 440102 coefficients.
Aggregator did 1179 substitutions.
Reduced MIP has 55137 rows, 56733 columns, and 346635 nonzeros.
Reduced MIP has 56683 binaries, 0 generals, 0 SOSs, and 0 indicators.
Presolve time = 7.55 sec. (4341.51 ticks)
Found incumbent of value 0.000000 after 11.28 sec. (5413.40 ticks)
Probing fixed 3475 vars, tightened 0 bounds.
Probing time = 9.33 sec. (1861.43 ticks)
Tried aggregator 2 times.
Detecting symmetries...
MIP Presolve eliminated 2442 rows and 3476 columns.
Aggregator did 5 substitutions.
Reduced MIP has 52690 rows, 53252 columns, and 328068 nonzeros.
Reduced MIP has 53202 binaries, 0 generals, 0 SOSs, and 0 indicators.
Presolve time = 0.59 sec. (290.68 ticks)
Probing fixed 1412 vars, tightened 0 bounds.
Probing time = 6.45 sec. (1581.00 ticks)
Clique table members: 188467.
MIP emphasis: balance optimality and feasibility.
MIP search method: dynamic search.
Parallel mode: deterministic, using up to 4 threads.
Root relaxation solution time = 10.44 sec. (6544.97 ticks)

        Nodes                                         Cuts/
   Node  Left     Objective  IInf  Best Integer    Best Bound    ItCnt     Gap

*     0+    0                            0.0000   113277.0000              --- 
      0     0   113277.0000  1056        0.0000   113277.0000    14778     --- 
*     0+    0                         6797.0000   113277.0000              --- 
      0     0   113277.0000  1056     6797.0000     Cuts: 112    25296     --- 
      0     0   113277.0000  1056     6797.0000    Cuts: 6207    40556     --- 
      0     0   113277.0000  1056     6797.0000    Cuts: 2602    58668     --- 
*     0+    0                         6950.0000   113277.0000              --- 
      0     0   113277.0000  1056     6950.0000      Cuts: 47    74382     --- 
      0     0   113277.0000  1056     6950.0000     Cuts: 262    85046     --- 
      0     0   113277.0000  1056     6950.0000    Cuts: 6754   104592     --- 
Heuristic still looking.
Heuristic still looking.
      0     2   113217.0000   988     6950.0000   113277.0000   130435     --- 
Elapsed time = 778.09 sec. (457953.45 ticks, tree = 0.02 MB, solutions = 3)
      1     3   113157.0000   845     6950.0000   113157.0000   155636     --- 
      2     4   113157.0000   741     6950.0000   113157.0000   156498     --- 
      3     4   113157.0000   730     6950.0000   113157.0000   170108     --- 
      5     5   113157.0000   850     6950.0000   113157.0000   174343     --- 
      6     3   109901.0000   836     6950.0000   113157.0000   151843     --- 
      7     5   113157.0000   768     6950.0000   113157.0000   173331     --- 
      8     7   113157.0000   821     6950.0000   113157.0000   199681     --- 
      9     8   109901.0000   903     6950.0000   113157.0000   224314     --- 
     10     9   113157.0000   937     6950.0000   113157.0000   243230     --- 
     11     5   113157.0000   755     6950.0000   113157.0000   181669     --- 
Elapsed time = 894.77 sec. (515067.92 ticks, tree = 0.02 MB, solutions = 3)
     15    12   113157.0000  1013     6950.0000   113157.0000   273420     --- 
     19    11   113157.0000  1184     6950.0000   113157.0000   256378     --- 
     24    12   113157.0000   881     6950.0000   113157.0000   290302     --- 
     25    16   113157.0000   867     6950.0000   113157.0000   277825     --- 
     28    13   113157.0000   908     6950.0000   113157.0000   302286     --- 
     31    14   109901.0000   874     6950.0000   113157.0000   275146     --- 
     34    15   113157.0000   809     6950.0000   113157.0000   306945     --- 
     35    15   113157.0000   851     6950.0000   113157.0000   266291     --- 
     36    16   113157.0000   770     6950.0000   113157.0000   308523     --- 
     37    18   113157.0000  1252     6950.0000   113157.0000   325657     --- 
Elapsed time = 947.00 sec. (538321.04 ticks, tree = 1.47 MB, solutions = 3)
     39    15   109901.0000  1034     6950.0000   113157.0000   288642     --- 
     41    29   109901.0000   970     6950.0000   113157.0000   375252     --- 
     45    20   113157.0000   794     6950.0000   113157.0000   328265     --- 
     46    25   113157.0000   941     6950.0000   113157.0000   349240     --- 
     49    32   113157.0000   886     6950.0000   113157.0000   398047     --- 
     50    27   113157.0000   975     6950.0000   113157.0000   352522     --- 
     54    38   113157.0000  1030     6950.0000   113157.0000   416516     --- 
     56    35   113157.0000  1115     6950.0000   113157.0000   406630     --- 
     60    40   113157.0000  1028     6950.0000   113157.0000   420237     --- 
     62    42   113157.0000  1117     6950.0000   113157.0000   426021     --- 
Elapsed time = 983.28 sec. (554918.66 ticks, tree = 1.42 MB, solutions = 3)
     66    20   113157.0000   939     6950.0000   113157.0000   283429     --- 
     69    48   113157.0000  1133     6950.0000   113157.0000   433210     --- 
     71    52   113157.0000   981     6950.0000   113157.0000   453749     --- 
     73    53   113157.0000  1305     6950.0000   113157.0000   462872     --- 
     75    63   113157.0000  1060     6950.0000   113157.0000   484397     --- 
     81    70   113157.0000   917     6950.0000   113157.0000   497815     --- 
     87    64   113157.0000  1079     6950.0000   113157.0000   488800     --- 
     89    72   113157.0000   904     6950.0000   113157.0000   504070     --- 
     96    68   113157.0000  1069     6950.0000   113157.0000   496488     --- 
    100    72   113157.0000  1037     6950.0000   113157.0000   499535     --- 
Elapsed time = 1038.95 sec. (578408.15 ticks, tree = 1.58 MB, solutions = 3)
    103    75   113157.0000  1045     6950.0000   113157.0000   504176     --- 
    106    73   113157.0000  1005     6950.0000   113157.0000   513056     --- 
    109    73    infeasible           6950.0000   113157.0000   519209     --- 
    113    79   113157.0000   971     6950.0000   113157.0000   526772     --- 
    119    82   109901.0000  1028     6950.0000   113157.0000   539042     --- 
    122    94   113157.0000  1028     6950.0000   113157.0000   560544     --- 
    128   106   113157.0000   900     6950.0000   113157.0000   623835     --- 
    132    83   113157.0000   867     6950.0000   113157.0000   531955     --- 
    143   106   109901.0000  1013     6950.0000   113157.0000   614705     --- 
    145    99   113157.0000  1021     6950.0000   113157.0000   578277     --- 
Elapsed time = 1068.53 sec. (593654.97 ticks, tree = 2.01 MB, solutions = 3)
    155   109   113157.0000   775     6950.0000   113157.0000   630213     --- 
    160   112   109901.0000  1200     6950.0000   113157.0000   634939     --- 
    164    87   113157.0000   950     6950.0000   113157.0000   550693     --- 
    168   133   109901.0000   982     6950.0000   113157.0000   729841     --- 
    171   134   109901.0000   938     6950.0000   113157.0000   731344     --- 
    179   123   113157.0000   821     6950.0000   113157.0000   689181     --- 
    183   136   109901.0000   886     6950.0000   113157.0000   734752     --- 
    189   136   109901.0000   914     6950.0000   113157.0000   735644     --- 
    192   116   113157.0000   946     6950.0000   113157.0000   668813     --- 
    198   139   109901.0000   905     6950.0000   113157.0000   738134     --- 
Elapsed time = 1108.02 sec. (611162.32 ticks, tree = 3.10 MB, solutions = 3)
    199   140   109901.0000   937     6950.0000   113157.0000   739174     --- 
    204   124   113157.0000   876     6950.0000   113157.0000   700459     --- 
    210   141    infeasible           6950.0000   113157.0000   742165     --- 
    213   147   109901.0000   863     6950.0000   113157.0000   753088     --- 
    214   148   109901.0000   877     6950.0000   113157.0000   754099     --- 
    223   150   109901.0000   801     6950.0000   113157.0000   757835     --- 
    225   148    infeasible           6950.0000   113157.0000   758943     --- 
    227   115    infeasible           6950.0000   113157.0000   697461     --- 
    228   147    infeasible           6950.0000   113157.0000   759702     --- 
    229   149    infeasible           6950.0000   113157.0000   805370     --- 
Elapsed time = 1177.94 sec. (631378.51 ticks, tree = 3.33 MB, solutions = 3)
    231   146    infeasible           6950.0000   113157.0000   761295     --- 

Clique cuts applied:  1
Implied bound cuts applied:  2145
Flow cuts applied:  287
Mixed integer rounding cuts applied:  553

Root node processing (before b&c):
  Real time             =  737.13 sec. (428322.08 ticks)
Parallel b&c, 4 threads:
  Real time             =  463.45 sec. (220987.94 ticks)
  Sync time (average)   =   91.56 sec.
  Wait time (average)   =    0.00 sec.
                          ------------
Total (root+branch&cut) = 1200.58 sec. (649310.02 ticks)

<<< solve


OBJECTIVE: 6950

<<< post process


<<< done

